benchmarks/fft_org/fft_org.ilp
enter Q
Maximize

686 dSta_0 + 899 d0_1.0 + 310 d1_2.0 + 31 d2_3.0 + 899 d2_1.0 + 31 d3_4.0 + 62 d3_5.0 + 62 d4_5.0 + 62 d5_28.0 + 62 d6_7.0 + 124 d6_10.0 + 93 d7_8.0 + 124 d8_35.0 + 124 d9_10.0 + 93 d9_8.0 + 31 d10_11.0 + 434 d10_27.0 + 62 d11_12.0 + 31 d12_13.0 + 62 d12_14.0 + 62 d13_14.0 + 62 d14_15.0 + 248 d14_17.0 + 31 d15_16.0 + 248 d15_17.0 + 248 d16_17.0 + 217 d17_18.0 + 124 d18_19.0 + 124 d19_20.0 + 93 d20_21.0 + 217 d21_22.0 + 62 d22_23.0 + 93 d22_25.0 + 1488 d23_24.0 + 93 d24_25.0 + 1488 d24_24.0 + 124 d25_26.0 + 217 d25_22.0 + 434 d26_27.0 + 62 d26_12.0 + 62 d28_29.0 + 62 d28_31.0 + 31 d29_34.0 + 31 d30_34.0 + 93 d31_32.0 + 93 d32_33.0 + 62 d32_30.0 + 31 d33_34.0 + 93 d33_32.0 + 93 d34_6.0 + 217 d35_36.0 + 93 d35_37.0 + 93 d36_37.0 + 217 d36_36.0 + 310 d37_9.0


Subject to

cm - 29 d0_1.0 - 29 d2_1.0 - 10 d1_2.0 - d2_3.0 - d3_4.0 - 2 d3_5.0 - 2 d4_5.0 - 3 d34_6.0 - 2 d6_7.0 - 3 d7_8.0 - 3 d9_8.0 - 10 d37_9.0 - 4 d6_10.0 - 4 d9_10.0 - d10_11.0 - 2 d11_12.0 - 2 d26_12.0 - d12_13.0 - 2 d12_14.0 - 2 d13_14.0 - 2 d14_15.0 - d15_16.0 - 8 d14_17.0 - 8 d15_17.0 - 8 d16_17.0 - 7 d17_18.0 - 4 d18_19.0 - 4 d19_20.0 - 3 d20_21.0 - 7 d21_22.0 - 7 d25_22.0 - 2 d22_23.0 - 48 d23_24.0 - 48 d24_24.0 - 3 d22_25.0 - 3 d24_25.0 - 4 d25_26.0 - 14 d10_27.0 - 14 d26_27.0 - 2 d5_28.0 - 2 d28_29.0 - 2 d32_30.0 - 2 d28_31.0 - 3 d31_32.0 - 3 d33_32.0 - 3 d32_33.0 - d29_34.0 - d30_34.0 - d33_34.0 - 4 d8_35.0 - 7 d35_36.0 - 7 d36_36.0 - 3 d35_37.0 - 3 d36_37.0 = 22

\ === tcfg constraints ===
dSta_0 = 1
b0 - d0_1 = 0
b0 - dSta_0 = 0
b1 - d1_2 = 0
b1 - d0_1 - d2_1 = 0
b2 - d2_3 - d2_1 = 0
b2 - d1_2 = 0
b3 - d3_4 - d3_5 = 0
b3 - d2_3 = 0
b4 - d4_5 = 0
b4 - d3_4 = 0
b5 - d5_28 = 0
b5 - d3_5 - d4_5 = 0
b6 - d6_7 - d6_10 = 0
b6 - d34_6 = 0
b7 - d7_8 = 0
b7 - d6_7 = 0
b8 - d8_35 = 0
b8 - d7_8 - d9_8 = 0
b9 - d9_10 - d9_8 = 0
b9 - d37_9 = 0
b10 - d10_11 - d10_27 = 0
b10 - d6_10 - d9_10 = 0
b11 - d11_12 = 0
b11 - d10_11 = 0
b12 - d12_13 - d12_14 = 0
b12 - d11_12 - d26_12 = 0
b13 - d13_14 = 0
b13 - d12_13 = 0
b14 - d14_15 - d14_17 = 0
b14 - d12_14 - d13_14 = 0
b15 - d15_16 - d15_17 = 0
b15 - d14_15 = 0
b16 - d16_17 = 0
b16 - d15_16 = 0
b17 - d17_18 = 0
b17 - d14_17 - d15_17 - d16_17 = 0
b18 - d18_19 = 0
b18 - d17_18 = 0
b19 - d19_20 = 0
b19 - d18_19 = 0
b20 - d20_21 = 0
b20 - d19_20 = 0
b21 - d21_22 = 0
b21 - d20_21 = 0
b22 - d22_23 - d22_25 = 0
b22 - d21_22 - d25_22 = 0
b23 - d23_24 = 0
b23 - d22_23 = 0
b24 - d24_25 - d24_24 = 0
b24 - d23_24 - d24_24 = 0
b25 - d25_26 - d25_22 = 0
b25 - d22_25 - d24_25 = 0
b26 - d26_27 - d26_12 = 0
b26 - d25_26 = 0
b27 - d10_27 - d26_27 = 0
b28 - d28_29 - d28_31 = 0
b28 - d5_28 = 0
b29 - d29_34 = 0
b29 - d28_29 = 0
b30 - d30_34 = 0
b30 - d32_30 = 0
b31 - d31_32 = 0
b31 - d28_31 = 0
b32 - d32_33 - d32_30 = 0
b32 - d31_32 - d33_32 = 0
b33 - d33_34 - d33_32 = 0
b33 - d32_33 = 0
b34 - d34_6 = 0
b34 - d29_34 - d30_34 - d33_34 = 0
b35 - d35_36 - d35_37 = 0
b35 - d8_35 = 0
b36 - d36_37 - d36_36 = 0
b36 - d35_36 - d36_36 = 0
b37 - d37_9 = 0
b37 - d35_37 - d36_37 = 0


\ === cache_cons ===
b0.0 <= 1
b1 - b1.0 = 0
b2 - b2.0 = 0
b3 - b3.0 = 0
b4 - b4.0 = 0
b5 - b5.0 = 0
b6 - b6.0 = 0
b7 - b7.0 = 0
b8 - b8.0 = 0
b9 - b9.0 = 0
b10 - b10.0 = 0
b11 - b11.0 = 0
b12 - b12.0 = 0
b13 - b13.0 = 0
b14 - b14.0 = 0
b15 - b15.0 = 0
b16 - b16.0 = 0
b17 - b17.0 = 0
b18 - b18.0 = 0
b19 - b19.0 = 0
b20 - b20.0 = 0
b21 - b21.0 = 0
b22 - b22.0 = 0
b23 - b23.0 = 0
b24 - b24.0 = 0
b25 - b25.0 = 0
b26 - b26.0 = 0
b27 - b27.0 = 0
b28 - b28.0 = 0
b29 - b29.0 = 0
b30 - b30.0 = 0
b31 - b31.0 = 0
b32 - b32.0 = 0
b33 - b33.0 = 0
b34 - b34.0 = 0
b35 - b35.0 = 0
b36 - b36.0 = 0
b37 - b37.0 = 0

b0.0 <= 1
b1.0 - d0_1.0 - d2_1.0 = 0
b2.0 - d1_2.0 = 0
b3.0 - d2_3.0 = 0
b4.0 - d3_4.0 = 0
b5.0 - d3_5.0 - d4_5.0 = 0
b6.0 - d34_6.0 = 0
b7.0 - d6_7.0 = 0
b8.0 - d7_8.0 - d9_8.0 = 0
b9.0 - d37_9.0 = 0
b10.0 - d6_10.0 - d9_10.0 = 0
b11.0 - d10_11.0 = 0
b12.0 - d11_12.0 - d26_12.0 = 0
b13.0 - d12_13.0 = 0
b14.0 - d12_14.0 - d13_14.0 = 0
b15.0 - d14_15.0 = 0
b16.0 - d15_16.0 = 0
b17.0 - d14_17.0 - d15_17.0 - d16_17.0 = 0
b18.0 - d17_18.0 = 0
b19.0 - d18_19.0 = 0
b20.0 - d19_20.0 = 0
b21.0 - d20_21.0 = 0
b22.0 - d21_22.0 - d25_22.0 = 0
b23.0 - d22_23.0 = 0
b24.0 - d23_24.0 - d24_24.0 = 0
b25.0 - d22_25.0 - d24_25.0 = 0
b26.0 - d25_26.0 = 0
b27.0 - d10_27.0 - d26_27.0 = 0
b28.0 - d5_28.0 = 0
b29.0 - d28_29.0 = 0
b30.0 - d32_30.0 = 0
b31.0 - d28_31.0 = 0
b32.0 - d31_32.0 - d33_32.0 = 0
b33.0 - d32_33.0 = 0
b34.0 - d29_34.0 - d30_34.0 - d33_34.0 = 0
b35.0 - d8_35.0 = 0
b36.0 - d35_36.0 - d36_36.0 = 0
b37.0 - d35_37.0 - d36_37.0 = 0

b0.0 - b0 = 0
b1.0 - b1 = 0
b2.0 - b2 = 0
b3.0 - b3 = 0
b4.0 - b4 = 0
b5.0 - b5 = 0
b6.0 - b6 = 0
b7.0 - b7 = 0
b8.0 - b8 = 0
b9.0 - b9 = 0
b10.0 - b10 = 0
b11.0 - b11 = 0
b12.0 - b12 = 0
b13.0 - b13 = 0
b14.0 - b14 = 0
b15.0 - b15 = 0
b16.0 - b16 = 0
b17.0 - b17 = 0
b18.0 - b18 = 0
b19.0 - b19 = 0
b20.0 - b20 = 0
b21.0 - b21 = 0
b22.0 - b22 = 0
b23.0 - b23 = 0
b24.0 - b24 = 0
b25.0 - b25 = 0
b26.0 - b26 = 0
b27.0 - b27 = 0
b28.0 - b28 = 0
b29.0 - b29 = 0
b30.0 - b30 = 0
b31.0 - b31 = 0
b32.0 - b32 = 0
b33.0 - b33 = 0
b34.0 - b34 = 0
b35.0 - b35 = 0
b36.0 - b36 = 0
b37.0 - b37 = 0


\ === tcfg_estunit_cons ===
d0_1 - d0_1.0 = 0
d1_2 - d1_2.0 = 0
d2_3 - d2_3.0 = 0
d2_1 - d2_1.0 = 0
d3_4 - d3_4.0 = 0
d3_5 - d3_5.0 = 0
d4_5 - d4_5.0 = 0
d5_28 - d5_28.0 = 0
d6_7 - d6_7.0 = 0
d6_10 - d6_10.0 = 0
d7_8 - d7_8.0 = 0
d8_35 - d8_35.0 = 0
d9_10 - d9_10.0 = 0
d9_8 - d9_8.0 = 0
d10_11 - d10_11.0 = 0
d10_27 - d10_27.0 = 0
d11_12 - d11_12.0 = 0
d12_13 - d12_13.0 = 0
d12_14 - d12_14.0 = 0
d13_14 - d13_14.0 = 0
d14_15 - d14_15.0 = 0
d14_17 - d14_17.0 = 0
d15_16 - d15_16.0 = 0
d15_17 - d15_17.0 = 0
d16_17 - d16_17.0 = 0
d17_18 - d17_18.0 = 0
d18_19 - d18_19.0 = 0
d19_20 - d19_20.0 = 0
d20_21 - d20_21.0 = 0
d21_22 - d21_22.0 = 0
d22_23 - d22_23.0 = 0
d22_25 - d22_25.0 = 0
d23_24 - d23_24.0 = 0
d24_25 - d24_25.0 = 0
d24_24 - d24_24.0 = 0
d25_26 - d25_26.0 = 0
d25_22 - d25_22.0 = 0
d26_27 - d26_27.0 = 0
d26_12 - d26_12.0 = 0
d28_29 - d28_29.0 = 0
d28_31 - d28_31.0 = 0
d29_34 - d29_34.0 = 0
d30_34 - d30_34.0 = 0
d31_32 - d31_32.0 = 0
d32_33 - d32_33.0 = 0
d32_30 - d32_30.0 = 0
d33_34 - d33_34.0 = 0
d33_32 - d33_32.0 = 0
d34_6 - d34_6.0 = 0
d35_36 - d35_36.0 = 0
d35_37 - d35_37.0 = 0
d36_37 - d36_37.0 = 0
d36_36 - d36_36.0 = 0
d37_9 - d37_9.0 = 0

\ === infeasible path constraints ===
b0 + d10_27 <= 1

b28 = 1
b29 = 0
b30 = 1
b31 = 1
b32 = 9
b33 = 8
b34 = 1
b35 = 256
b36 = 2048
b37 = 256
b0 = 1
b1 = 256
b2 = 256
b3 = 1
b4 = 0
b5 = 1
b6 = 1
b7 = 1
b8 = 256
b9 = 256
b10 = 1
b11 = 1
b12 = 8
b13 = 0
b14 = 8
b15 = 0
b16 = 0
b17 = 8
b18 = 8
b19 = 8
b20 = 8
b21 = 8
b22 = 263
b23 = 263
b24 = 1279
b25 = 263
b26 = 8
b27 = 1

Generals

cm
Sta
b0
d0_1
b1
d1_2
b2
d2_3
d2_1
b3
d3_4
d3_5
b4
d4_5
b5
d5_28
b6
d6_7
d6_10
b7
d7_8
b8
d8_35
b9
d9_10
d9_8
b10
d10_11
d10_27
b11
d11_12
b12
d12_13
d12_14
b13
d13_14
b14
d14_15
d14_17
b15
d15_16
d15_17
b16
d16_17
b17
d17_18
b18
d18_19
b19
d19_20
b20
d20_21
b21
d21_22
b22
d22_23
d22_25
b23
d23_24
b24
d24_25
d24_24
b25
d25_26
d25_22
b26
d26_27
d26_12
b27
b28
d28_29
d28_31
b29
d29_34
b30
d30_34
b31
d31_32
b32
d32_33
d32_30
b33
d33_34
d33_32
b34
d34_6
b35
d35_36
d35_37
b36
d36_37
d36_36
b37
d37_9
b0.0
b1.0
b2.0
b3.0
b4.0
b5.0
b6.0
b7.0
b8.0
b9.0
b10.0
b11.0
b12.0
b13.0
b14.0
b15.0
b16.0
b17.0
b18.0
b19.0
b20.0
b21.0
b22.0
b23.0
b24.0
b25.0
b26.0
b27.0
b28.0
b29.0
b30.0
b31.0
b32.0
b33.0
b34.0
b35.0
b36.0
b37.0
b0.0
b1.0
b2.0
b3.0
b4.0
b5.0
b6.0
b7.0
b8.0
b9.0
b10.0
b11.0
b12.0
b13.0
b14.0
b15.0
b16.0
b17.0
b18.0
b19.0
b20.0
b21.0
b22.0
b23.0
b24.0
b25.0
b26.0
b27.0
b28.0
b29.0
b30.0
b31.0
b32.0
b33.0
b34.0
b35.0
b36.0
b37.0

End
\ total_cons: 282 	total_vars: 170
optimize
set logfile /home/sudiptac/sudiptac/mWork/benchmarks/fft_org/fft_org/fft_org.sol
display solution objective
display solution variables -
quit
