benchmarks/fft_org/fft_org.out
sim-profile: SimpleScalar/PISA Tool Set version 3.0 of August, 2003.
Copyright (c) 1994-2003 by Todd M. Austin, Ph.D. and SimpleScalar, LLC.
All Rights Reserved. This version of SimpleScalar is licensed for academic
non-commercial use.  No portion of this work may be used by any commercial
entity, or for any commercial purpose, without the prior written permission
of SimpleScalar, LLC (info@simplescalar.com).

sim: command line: /home/sudiptac/sudiptac/Work/simplesim-3.0/sim-profile -pcstat sim_num_insn fft_org 

sim: simulation started @ Thu Mar 18 00:27:52 2010, options follow:

sim-profile: This simulator implements a functional simulator with
profiling support.  Run with the `-h' flag to see profiling options
available.

# -config                     # load configuration from a file
# -dumpconfig                 # dump configuration to a file
# -h                    false # print help message    
# -v                    false # verbose operation     
# -d                    false # enable debug message  
# -i                    false # start in Dlite debugger
-seed                       1 # random number generator seed (0 for timer seed)
# -q                    false # initialize and terminate immediately
# -chkpt               <null> # restore EIO trace execution from <fname>
# -redir:sim           <null> # redirect simulator output to file (non-interactive only)
# -redir:prog          <null> # redirect simulated program output to file
-nice                       0 # simulator scheduling priority
-max:inst                   0 # maximum number of inst's to execute
-all                    false # enable all profile options
-iclass                 false # enable instruction class profiling
-iprof                  false # enable instruction profiling
-brprof                 false # enable branch instruction profiling
-amprof                 false # enable address mode profiling
-segprof                false # enable load/store address segment profiling
-tsymprof               false # enable text symbol profiling
-taddrprof              false # enable text address profiling
-dsymprof               false # enable data symbol profiling
-internal               false # include compiler-internal symbols during symbol profiling
# -pcstat        sim_num_insn # profile stat(s) against text addr's (mult uses ok)

sim: ** starting functional simulation **
panic: attempted to execute a bogus opcode

sim: ** simulation statistics **
sim_num_insn                 195482 # total number of instructions executed
sim_num_refs                  49088 # total number of loads and stores executed
sim_elapsed_time                  1 # total simulation time in seconds
sim_inst_rate           195482.0000 # simulation speed (in insts/sec)

sim_num_insn_by_pc     # total number of instructions executed (by text address)
sim_num_insn_by_pc.count = 754
sim_num_insn_by_pc.total = 195481
sim_num_insn_by_pc.imin = 0x400140
sim_num_insn_by_pc.imax = 0x403508
sim_num_insn_by_pc.average = 259.2586
sim_num_insn_by_pc.std_dev = 378.4344
sim_num_insn_by_pc.overflows = 0
# pdf == prob dist fn, cdf == cumulative dist fn
#          index      count    pdf 
sim_num_insn_by_pc.start_dist
0x400140 1 0.00
0x400148 1 0.00
0x400150 1 0.00
0x400158 1 0.00
0x400160 1 0.00
0x400168 1 0.00
0x400170 1 0.00
0x400178 1 0.00
0x400180 1 0.00
0x400188 1 0.00
0x400190 1 0.00
0x400198 1 0.00
0x4001a0 1 0.00
0x4001a8 1 0.00
0x4001b0 1 0.00
0x4001b8 1 0.00
0x4001c0 1 0.00
0x4001c8 1 0.00
0x4001d0 1 0.00
0x4001f0 1 0.00
0x4001f8 1 0.00
0x400210 1 0.00
0x400218 1 0.00
0x400220 1 0.00
0x400228 1 0.00
0x400230 9 0.00
0x400238 9 0.00
0x400240 9 0.00
0x400248 8 0.00
0x400250 8 0.00
0x400258 8 0.00
0x400260 1 0.00
0x400268 256 0.13
0x400270 256 0.13
0x400278 256 0.13
0x400280 256 0.13
0x400288 2048 1.05
0x400290 2048 1.05
0x400298 2048 1.05
0x4002a0 2048 1.05
0x4002a8 2048 1.05
0x4002b0 2048 1.05
0x4002b8 2048 1.05
0x4002c0 256 0.13
0x4002c8 256 0.13
0x4002d0 256 0.13
0x4002d8 1 0.00
0x4002e0 1 0.00
0x4002e8 1 0.00
0x4002f0 1 0.00
0x4002f8 1 0.00
0x400300 1 0.00
0x400308 1 0.00
0x400310 1 0.00
0x400318 1 0.00
0x400320 1 0.00
0x400328 1 0.00
0x400330 1 0.00
0x400338 1 0.00
0x400340 1 0.00
0x400348 1 0.00
0x400350 1 0.00
0x400358 1 0.00
0x400360 1 0.00
0x400368 1 0.00
0x400370 1 0.00
0x400378 1 0.00
0x400380 1 0.00
0x400388 256 0.13
0x400390 256 0.13
0x400398 256 0.13
0x4003a0 256 0.13
0x4003a8 256 0.13
0x4003b0 256 0.13
0x4003b8 256 0.13
0x4003c0 256 0.13
0x4003c8 256 0.13
0x4003d0 256 0.13
0x4003d8 256 0.13
0x4003e0 256 0.13
0x4003e8 256 0.13
0x4003f0 256 0.13
0x4003f8 256 0.13
0x400400 256 0.13
0x400408 256 0.13
0x400410 256 0.13
0x400418 256 0.13
0x400420 256 0.13
0x400428 256 0.13
0x400430 256 0.13
0x400438 256 0.13
0x400440 256 0.13
0x400448 256 0.13
0x400450 256 0.13
0x400458 256 0.13
0x400460 256 0.13
0x400468 256 0.13
0x400470 256 0.13
0x400478 256 0.13
0x400480 256 0.13
0x400488 256 0.13
0x400490 256 0.13
0x400498 256 0.13
0x4004a0 256 0.13
0x4004a8 256 0.13
0x4004b0 256 0.13
0x4004b8 256 0.13
0x4004c0 1 0.00
0x4004d0 1 0.00
0x4004d8 1 0.00
0x4004e0 1 0.00
0x4004e8 1 0.00
0x4004f0 1 0.00
0x4004f8 1 0.00
0x400500 1 0.00
0x400508 256 0.13
0x400510 256 0.13
0x400518 256 0.13
0x400520 256 0.13
0x400528 256 0.13
0x400530 256 0.13
0x400538 256 0.13
0x400540 256 0.13
0x400548 256 0.13
0x400550 256 0.13
0x400558 256 0.13
0x400560 256 0.13
0x400568 256 0.13
0x400570 1 0.00
0x400578 1 0.00
0x400580 1 0.00
0x400588 1 0.00
0x400590 1 0.00
0x400598 8 0.00
0x4005a0 8 0.00
0x4005b0 8 0.00
0x4005b8 8 0.00
0x4005d8 8 0.00
0x4005e0 8 0.00
0x4005e8 8 0.00
0x4005f0 8 0.00
0x4005f8 8 0.00
0x400600 8 0.00
0x400608 8 0.00
0x400610 8 0.00
0x400618 8 0.00
0x400620 8 0.00
0x400628 8 0.00
0x400630 8 0.00
0x400638 8 0.00
0x400640 8 0.00
0x400648 8 0.00
0x400650 8 0.00
0x400658 8 0.00
0x400660 8 0.00
0x400668 8 0.00
0x400670 8 0.00
0x400678 8 0.00
0x400680 8 0.00
0x400688 8 0.00
0x400690 8 0.00
0x400698 8 0.00
0x4006a0 8 0.00
0x4006a8 263 0.13
0x4006b0 263 0.13
0x4006b8 263 0.13
0x4006c0 263 0.13
0x4006c8 263 0.13
0x4006d0 263 0.13
0x4006d8 263 0.13
0x4006e0 263 0.13
0x4006e8 263 0.13
0x4006f0 1279 0.65
0x4006f8 1279 0.65
0x400700 1279 0.65
0x400708 1279 0.65
0x400710 1279 0.65
0x400718 1279 0.65
0x400720 1279 0.65
0x400728 1279 0.65
0x400730 1279 0.65
0x400738 1279 0.65
0x400740 1279 0.65
0x400748 1279 0.65
0x400750 1279 0.65
0x400758 1279 0.65
0x400760 1279 0.65
0x400768 1279 0.65
0x400770 1279 0.65
0x400778 1279 0.65
0x400780 1279 0.65
0x400788 1279 0.65
0x400790 1279 0.65
0x400798 1279 0.65
0x4007a0 1279 0.65
0x4007a8 1279 0.65
0x4007b0 1279 0.65
0x4007b8 1279 0.65
0x4007c0 1279 0.65
0x4007c8 1279 0.65
0x4007d0 1279 0.65
0x4007d8 1279 0.65
0x4007e0 1279 0.65
0x4007e8 1279 0.65
0x4007f0 1279 0.65
0x4007f8 1279 0.65
0x400800 1279 0.65
0x400808 1279 0.65
0x400810 1279 0.65
0x400818 1279 0.65
0x400820 1279 0.65
0x400828 1279 0.65
0x400830 1279 0.65
0x400838 1279 0.65
0x400840 1279 0.65
0x400848 1279 0.65
0x400850 1279 0.65
0x400858 1279 0.65
0x400860 1279 0.65
0x400868 1279 0.65
0x400870 263 0.13
0x400878 263 0.13
0x400880 263 0.13
0x400888 8 0.00
0x400890 8 0.00
0x400898 8 0.00
0x4008a0 8 0.00
0x4008a8 1 0.00
0x4008b0 1 0.00
0x4008b8 1 0.00
0x4008c0 1 0.00
0x4008c8 1 0.00
0x4008d0 1 0.00
0x4008d8 1 0.00
0x4008e0 1 0.00
0x4008e8 1 0.00
0x4008f0 1 0.00
0x4008f8 1 0.00
0x400900 1 0.00
0x400908 1 0.00
0x400910 1 0.00
0x400920 1 0.00
0x400928 1 0.00
0x400930 1 0.00
0x400938 1 0.00
0x400940 1 0.00
0x400948 1 0.00
0x400af0 272 0.14
0x400af8 272 0.14
0x400b00 272 0.14
0x400b08 272 0.14
0x400b10 272 0.14
0x400b18 272 0.14
0x400b20 272 0.14
0x400b28 272 0.14
0x400b30 272 0.14
0x400b38 272 0.14
0x400b40 272 0.14
0x400b58 272 0.14
0x400b60 272 0.14
0x400b68 272 0.14
0x400b70 272 0.14
0x400b78 272 0.14
0x400b80 272 0.14
0x400b88 272 0.14
0x400b90 272 0.14
0x400b98 272 0.14
0x400ba0 272 0.14
0x400ba8 272 0.14
0x400bb0 272 0.14
0x400bb8 272 0.14
0x400bc0 272 0.14
0x400bc8 272 0.14
0x400bd0 196 0.10
0x400bd8 196 0.10
0x400be0 196 0.10
0x400be8 196 0.10
0x400bf0 67 0.03
0x400bf8 67 0.03
0x400c00 67 0.03
0x400c08 67 0.03
0x400c10 67 0.03
0x400c18 67 0.03
0x400c20 67 0.03
0x400c28 67 0.03
0x400c30 129 0.07
0x400c38 129 0.07
0x400c40 129 0.07
0x400c48 129 0.07
0x400c50 129 0.07
0x400c58 129 0.07
0x400c60 129 0.07
0x400c68 129 0.07
0x400c70 129 0.07
0x400c78 129 0.07
0x400c80 129 0.07
0x400c88 129 0.07
0x400c90 129 0.07
0x400c98 129 0.07
0x400ca0 129 0.07
0x400ca8 129 0.07
0x400cb0 129 0.07
0x400cb8 129 0.07
0x400cc0 129 0.07
0x400cc8 129 0.07
0x400cd0 129 0.07
0x400cd8 129 0.07
0x400ce0 129 0.07
0x400ce8 129 0.07
0x400cf0 129 0.07
0x400cf8 129 0.07
0x400d00 129 0.07
0x400d08 129 0.07
0x400d10 129 0.07
0x400d18 129 0.07
0x400d20 129 0.07
0x400d28 129 0.07
0x400d30 129 0.07
0x400d38 129 0.07
0x400d40 129 0.07
0x400d48 10 0.01
0x400d50 10 0.01
0x400d58 10 0.01
0x400d60 10 0.01
0x400d68 119 0.06
0x400d70 119 0.06
0x400d78 129 0.07
0x400d80 129 0.07
0x400d88 129 0.07
0x400d90 129 0.07
0x400d98 143 0.07
0x400da0 143 0.07
0x400da8 143 0.07
0x400db0 143 0.07
0x400db8 131 0.07
0x400dc0 131 0.07
0x400dc8 131 0.07
0x400dd0 131 0.07
0x400dd8 131 0.07
0x400de0 131 0.07
0x400de8 131 0.07
0x400df0 131 0.07
0x400df8 131 0.07
0x400e00 131 0.07
0x400e08 131 0.07
0x400e10 131 0.07
0x400e18 131 0.07
0x400e20 131 0.07
0x400e28 131 0.07
0x400e30 131 0.07
0x400e38 131 0.07
0x400e40 131 0.07
0x400e48 131 0.07
0x400e50 131 0.07
0x400e58 131 0.07
0x400e60 131 0.07
0x400e68 131 0.07
0x400e70 131 0.07
0x400e78 131 0.07
0x400e80 131 0.07
0x400e88 131 0.07
0x400e90 12 0.01
0x400e98 272 0.14
0x400ea0 272 0.14
0x400ea8 272 0.14
0x400eb0 272 0.14
0x400eb8 272 0.14
0x400ec0 272 0.14
0x400ec8 272 0.14
0x400ed0 272 0.14
0x400ed8 272 0.14
0x400ee0 16 0.01
0x400ee8 16 0.01
0x400ef0 16 0.01
0x400ef8 16 0.01
0x400f00 16 0.01
0x400f08 16 0.01
0x400f10 16 0.01
0x400f18 16 0.01
0x400f20 16 0.01
0x400f28 16 0.01
0x400f30 16 0.01
0x400f48 16 0.01
0x400f50 16 0.01
0x400f58 16 0.01
0x400f60 16 0.01
0x400f68 16 0.01
0x400f70 16 0.01
0x400f78 16 0.01
0x400f80 16 0.01
0x400f88 16 0.01
0x400f90 16 0.01
0x400f98 16 0.01
0x400fa0 16 0.01
0x400fa8 3 0.00
0x400fb0 3 0.00
0x400fb8 3 0.00
0x400fc0 3 0.00
0x400fc8 2 0.00
0x400fd0 2 0.00
0x400fd8 2 0.00
0x400fe0 2 0.00
0x400fe8 2 0.00
0x400ff0 2 0.00
0x400ff8 2 0.00
0x401000 2 0.00
0x401008 2 0.00
0x401010 2 0.00
0x401018 2 0.00
0x401020 2 0.00
0x401028 2 0.00
0x401030 2 0.00
0x401038 2 0.00
0x401040 2 0.00
0x401048 2 0.00
0x401050 2 0.00
0x401058 2 0.00
0x401060 2 0.00
0x401068 2 0.00
0x401070 2 0.00
0x401078 2 0.00
0x401080 2 0.00
0x401088 2 0.00
0x401090 2 0.00
0x401098 2 0.00
0x4010a0 2 0.00
0x4010a8 2 0.00
0x4010b0 2 0.00
0x4010b8 1 0.00
0x4010c0 1 0.00
0x4010c8 1 0.00
0x4010d0 1 0.00
0x4010d8 1 0.00
0x4010e0 14 0.01
0x4010e8 14 0.01
0x4010f0 14 0.01
0x4010f8 14 0.01
0x401100 12 0.01
0x401108 12 0.01
0x401110 2 0.00
0x401118 2 0.00
0x401120 2 0.00
0x401128 2 0.00
0x401130 2 0.00
0x401138 2 0.00
0x401140 2 0.00
0x401148 2 0.00
0x401150 2 0.00
0x401158 2 0.00
0x401160 2 0.00
0x401168 2 0.00
0x401170 2 0.00
0x401178 2 0.00
0x401180 2 0.00
0x401188 2 0.00
0x401190 2 0.00
0x401198 2 0.00
0x4011a0 2 0.00
0x4011a8 2 0.00
0x4011b0 2 0.00
0x4011b8 2 0.00
0x4011c0 2 0.00
0x4011c8 2 0.00
0x4011d0 2 0.00
0x4011d8 2 0.00
0x4011e0 2 0.00
0x4011e8 2 0.00
0x4011f0 2 0.00
0x4011f8 2 0.00
0x401200 2 0.00
0x401208 2 0.00
0x401230 2 0.00
0x401238 2 0.00
0x401240 2 0.00
0x401248 2 0.00
0x401250 2 0.00
0x401258 2 0.00
0x401260 16 0.01
0x401268 16 0.01
0x401270 16 0.01
0x401278 16 0.01
0x401280 16 0.01
0x401288 16 0.01
0x401290 16 0.01
0x4012a0 1 0.00
0x4012a8 1 0.00
0x4012b0 1 0.00
0x4012b8 1 0.00
0x4012c0 1 0.00
0x4012c8 1 0.00
0x4012d0 1 0.00
0x4012d8 1 0.00
0x4012e0 1 0.00
0x4012e8 1 0.00
0x4012f0 1 0.00
0x4012f8 1 0.00
0x401308 1 0.00
0x401310 1 0.00
0x401318 1 0.00
0x401320 1 0.00
0x401328 1 0.00
0x4015b0 288 0.15
0x4015b8 288 0.15
0x4015c0 288 0.15
0x4015c8 288 0.15
0x4015d0 288 0.15
0x4015d8 288 0.15
0x4015e0 288 0.15
0x4015e8 288 0.15
0x4015f0 288 0.15
0x4015f8 288 0.15
0x401600 288 0.15
0x401608 288 0.15
0x401610 288 0.15
0x401618 288 0.15
0x401620 288 0.15
0x401628 288 0.15
0x401630 288 0.15
0x401638 288 0.15
0x401640 288 0.15
0x401650 288 0.15
0x401658 288 0.15
0x401660 288 0.15
0x401668 288 0.15
0x401670 288 0.15
0x401678 288 0.15
0x401680 288 0.15
0x401688 288 0.15
0x401690 288 0.15
0x401698 288 0.15
0x4016a0 288 0.15
0x4016a8 288 0.15
0x4016b0 288 0.15
0x4016b8 288 0.15
0x4016c0 288 0.15
0x4016c8 288 0.15
0x4016d0 288 0.15
0x4016d8 288 0.15
0x4016e0 288 0.15
0x4016e8 288 0.15
0x4016f0 288 0.15
0x4016f8 288 0.15
0x401700 288 0.15
0x401708 288 0.15
0x401710 288 0.15
0x401718 288 0.15
0x401720 288 0.15
0x401728 288 0.15
0x401730 288 0.15
0x401750 288 0.15
0x401758 288 0.15
0x401760 288 0.15
0x401768 288 0.15
0x401788 288 0.15
0x401790 288 0.15
0x401798 288 0.15
0x4017a0 288 0.15
0x4017b8 288 0.15
0x4017c0 288 0.15
0x4017c8 288 0.15
0x4017d0 288 0.15
0x401858 288 0.15
0x401860 288 0.15
0x401868 288 0.15
0x401870 288 0.15
0x401878 288 0.15
0x401880 288 0.15
0x4018d0 288 0.15
0x4018d8 288 0.15
0x4018e0 288 0.15
0x4018e8 288 0.15
0x4018f0 288 0.15
0x4018f8 288 0.15
0x401900 288 0.15
0x401908 288 0.15
0x401910 288 0.15
0x401918 288 0.15
0x401920 288 0.15
0x401928 288 0.15
0x401930 288 0.15
0x401938 288 0.15
0x401940 288 0.15
0x401948 288 0.15
0x401950 253 0.13
0x401958 253 0.13
0x401960 253 0.13
0x401968 253 0.13
0x401970 768 0.39
0x401978 768 0.39
0x401980 768 0.39
0x401988 768 0.39
0x401990 768 0.39
0x401998 768 0.39
0x4019a0 768 0.39
0x4019a8 768 0.39
0x4019b0 768 0.39
0x4019b8 768 0.39
0x4019c0 768 0.39
0x4019c8 768 0.39
0x4019d0 768 0.39
0x4019d8 768 0.39
0x4019e0 768 0.39
0x4019e8 768 0.39
0x4019f0 768 0.39
0x4019f8 768 0.39
0x401a00 768 0.39
0x401a08 518 0.26
0x401a10 518 0.26
0x401a18 518 0.26
0x401a20 518 0.26
0x401a28 518 0.26
0x401a30 518 0.26
0x401a38 518 0.26
0x401a40 768 0.39
0x401a48 768 0.39
0x401a50 768 0.39
0x401a58 768 0.39
0x401a60 768 0.39
0x401a68 768 0.39
0x401a70 768 0.39
0x401a78 768 0.39
0x401a80 768 0.39
0x401a88 768 0.39
0x401a90 768 0.39
0x401a98 288 0.15
0x401aa0 288 0.15
0x401aa8 288 0.15
0x401ab0 288 0.15
0x401ab8 194 0.10
0x401ac0 194 0.10
0x401ac8 194 0.10
0x401ad0 194 0.10
0x401ad8 194 0.10
0x401ae0 194 0.10
0x401ae8 194 0.10
0x401af0 63 0.03
0x401af8 63 0.03
0x401b00 63 0.03
0x401b08 63 0.03
0x401b10 63 0.03
0x401b18 288 0.15
0x401b20 288 0.15
0x401b28 288 0.15
0x401b30 288 0.15
0x401b38 288 0.15
0x401b40 288 0.15
0x401b48 288 0.15
0x401b50 288 0.15
0x401b58 288 0.15
0x401b60 288 0.15
0x401b68 288 0.15
0x401b70 288 0.15
0x401b78 288 0.15
0x401b80 288 0.15
0x401b88 288 0.15
0x401b90 288 0.15
0x401b98 288 0.15
0x401ba0 288 0.15
0x401ba8 288 0.15
0x401bb0 288 0.15
0x401bb8 288 0.15
0x401bc0 288 0.15
0x401bc8 288 0.15
0x401bd0 486 0.25
0x401bd8 486 0.25
0x401be0 486 0.25
0x401be8 486 0.25
0x401bf0 486 0.25
0x401bf8 486 0.25
0x401c00 486 0.25
0x401c08 486 0.25
0x401c10 486 0.25
0x401c18 486 0.25
0x401c20 486 0.25
0x401c28 486 0.25
0x401c30 486 0.25
0x401c40 1 0.00
0x401c48 1 0.00
0x401c50 1 0.00
0x401c58 1 0.00
0x401c60 1 0.00
0x401c68 1 0.00
0x401c88 1 0.00
0x401c90 1 0.00
0x401c98 1 0.00
0x401ca0 1 0.00
0x401cc0 1 0.00
0x401cc8 1 0.00
0x401cd0 1 0.00
0x401cd8 1 0.00
0x401ce0 1 0.00
0x401ce8 1 0.00
0x402ec0 864 0.44
0x402ec8 864 0.44
0x402ed0 864 0.44
0x402ed8 864 0.44
0x402ee0 864 0.44
0x402ee8 864 0.44
0x402ef0 864 0.44
0x402f20 864 0.44
0x402f28 864 0.44
0x402f30 576 0.29
0x402f38 576 0.29
0x402f40 576 0.29
0x402f48 576 0.29
0x402f50 576 0.29
0x402f58 576 0.29
0x402f60 576 0.29
0x402f98 576 0.29
0x402fa0 576 0.29
0x403370 1 0.00
0x403378 1 0.00
0x403380 1 0.00
0x403388 1 0.00
0x4033c0 1 0.00
0x4033c8 1 0.00
0x4033d0 1 0.00
0x4033d8 1 0.00
0x4033e0 1 0.00
0x4033e8 1 0.00
0x4033f0 2 0.00
0x4033f8 2 0.00
0x403400 2 0.00
0x403408 2 0.00
0x403410 2 0.00
0x403418 2 0.00
0x403420 2 0.00
0x403428 2 0.00
0x403430 1 0.00
0x403438 1 0.00
0x403440 1 0.00
0x403448 1 0.00
0x403450 1 0.00
0x403458 1 0.00
0x403460 1 0.00
0x403468 1 0.00
0x403470 1 0.00
0x403478 1 0.00
0x403480 1 0.00
0x403488 1 0.00
0x403490 1 0.00
0x403498 1 0.00
0x4034a0 1 0.00
0x4034a8 1 0.00
0x4034b0 1 0.00
0x4034b8 1 0.00
0x4034c0 1 0.00
0x4034c8 1 0.00
0x4034d0 1 0.00
0x4034d8 1 0.00
0x4034e0 1 0.00
0x4034f8 1 0.00
0x403500 1 0.00
0x403508 1 0.00
sim_num_insn_by_pc.end_dist

ld_text_base             0x00400000 # program text (code) segment base
ld_text_size                  28944 # program text (code) size in bytes
ld_data_base             0x10000000 # program initialized data segment base
ld_data_size                   4096 # program init'ed `.data' and uninit'ed `.bss' size in bytes
ld_stack_base            0x7fffc000 # program stack segment base (highest address in stack)
ld_stack_size                 16384 # program initial stack size
ld_prog_entry            0x00400140 # program entry point (initial PC)
ld_environ_base          0x7fff8000 # program environment base address address
ld_target_big_endian              0 # target executable endian-ness, non-zero if big endian
mem.page_count                   12 # total number of pages allocated
mem.page_mem                    48k # total size of memory pages allocated
mem.ptab_misses                  14 # total first level page table misses
mem.ptab_accesses           1062534 # total page table accesses
mem.ptab_miss_rate           0.0000 # first level page table miss rate

